(set-info :category "industrial")
(set-info :status sat)
(declare-fun x1 () (_ BitVec 32))
(declare-fun x2 () (_ BitVec 32))
(declare-fun x3 () (_ BitVec 32))
(declare-fun x4 () (_ BitVec 32))
(declare-fun x5 () (_ BitVec 32))
(declare-fun x6 () (_ BitVec 32))
(declare-fun x7 () (_ BitVec 32))
(declare-fun x8 () (_ BitVec 32))
(declare-fun x9 () (_ BitVec 32))
(declare-fun x10 () (_ BitVec 32))
(declare-fun x11 () (_ BitVec 32))
(declare-fun x12 () (_ BitVec 32))
(declare-fun x13 () (_ BitVec 32))
(declare-fun x14 () (_ BitVec 32))
(declare-fun x15 () (_ BitVec 32))
(declare-fun x16 () (_ BitVec 32))
(declare-fun x17 () (_ BitVec 32))
(declare-fun x18 () (_ BitVec 32))
(declare-fun x19 () (_ BitVec 32))
(declare-fun x20 () (_ BitVec 32))
(declare-fun x21 () (_ BitVec 32))
(declare-fun x22 () (_ BitVec 32))
(declare-fun x23 () (_ BitVec 32))
(declare-fun x24 () (_ BitVec 32))
(declare-fun x25 () (_ BitVec 32))
(declare-fun x26 () (_ BitVec 32))
(declare-fun x27 () (_ BitVec 32))
(declare-fun x28 () (_ BitVec 32))
(declare-fun x29 () (_ BitVec 32))
(declare-fun x30 () (_ BitVec 32))
(declare-fun x31 () (_ BitVec 32))
(declare-fun x32 () (_ BitVec 32))
(declare-fun x33 () (_ BitVec 32))
(declare-fun x34 () (_ BitVec 32))
(declare-fun x35 () (_ BitVec 32))
(declare-fun x36 () (_ BitVec 32))
(declare-fun x37 () (_ BitVec 32))
(declare-fun x38 () (_ BitVec 32))
(declare-fun x39 () (_ BitVec 32))
(declare-fun x40 () (_ BitVec 32))
(declare-fun x41 () (_ BitVec 32))
(declare-fun x42 () (_ BitVec 32))
(declare-fun x43 () (_ BitVec 32))
(declare-fun x44 () (_ BitVec 32))
(declare-fun x45 () (_ BitVec 32))
(declare-fun x46 () (_ BitVec 32))
(declare-fun x47 () (_ BitVec 32))
(declare-fun x48 () (_ BitVec 32))
(declare-fun x49 () (_ BitVec 32))
(declare-fun x50 () (_ BitVec 32))
(declare-fun x51 () (_ BitVec 32))
(declare-fun x52 () (_ BitVec 32))
(declare-fun x53 () (_ BitVec 32))
(declare-fun x54 () (_ BitVec 32))
(declare-fun x55 () (_ BitVec 32))
(declare-fun x56 () (_ BitVec 32))
(declare-fun x57 () (_ BitVec 32))
(declare-fun x58 () (_ BitVec 32))
(declare-fun x59 () (_ BitVec 32))
(declare-fun x60 () (_ BitVec 32))
(declare-fun x61 () (_ BitVec 32))
(declare-fun x62 () (_ BitVec 32))
(declare-fun x63 () (_ BitVec 32))
(declare-fun x64 () (_ BitVec 32))
(declare-fun x65 () (_ BitVec 32))
(declare-fun x66 () (_ BitVec 32))
(declare-fun x67 () (_ BitVec 32))
(declare-fun x68 () (_ BitVec 32))
(declare-fun x69 () (_ BitVec 32))
(declare-fun x70 () (_ BitVec 32))
(declare-fun x71 () (_ BitVec 32))
(declare-fun x72 () (_ BitVec 32))
(declare-fun x73 () (_ BitVec 32))
(declare-fun x74 () (_ BitVec 32))
(assert (bvult x1 (_ bv11 32)))
(assert (bvult x2 (_ bv11 32)))
(assert (bvult x3 (_ bv11 32)))
(assert (bvult x4 (_ bv11 32)))
(assert (bvult x5 (_ bv11 32)))
(assert (bvult x6 (_ bv11 32)))
(assert (bvult x7 (_ bv11 32)))
(assert (bvult x8 (_ bv11 32)))
(assert (bvult x9 (_ bv11 32)))
(assert (bvult x10 (_ bv11 32)))
(assert (bvult x11 (_ bv11 32)))
(assert (bvult x12 (_ bv11 32)))
(assert (bvult x13 (_ bv11 32)))
(assert (bvult x14 (_ bv11 32)))
(assert (bvult x15 (_ bv11 32)))
(assert (bvult x16 (_ bv11 32)))
(assert (bvult x17 (_ bv11 32)))
(assert (bvult x18 (_ bv11 32)))
(assert (bvult x19 (_ bv11 32)))
(assert (bvult x20 (_ bv11 32)))
(assert (bvult x21 (_ bv11 32)))
(assert (bvult x22 (_ bv11 32)))
(assert (bvult x23 (_ bv11 32)))
(assert (bvult x24 (_ bv11 32)))
(assert (bvult x25 (_ bv11 32)))
(assert (bvult x26 (_ bv11 32)))
(assert (bvult x27 (_ bv11 32)))
(assert (bvult x28 (_ bv11 32)))
(assert (bvult x29 (_ bv11 32)))
(assert (bvult x30 (_ bv11 32)))
(assert (bvult x31 (_ bv11 32)))
(assert (bvult x32 (_ bv11 32)))
(assert (bvult x33 (_ bv11 32)))
(assert (bvult x34 (_ bv11 32)))
(assert (bvult x35 (_ bv11 32)))
(assert (bvult x36 (_ bv11 32)))
(assert (bvult x37 (_ bv11 32)))
(assert (bvult x38 (_ bv11 32)))
(assert (bvult x39 (_ bv11 32)))
(assert (bvult x40 (_ bv11 32)))
(assert (bvult x41 (_ bv11 32)))
(assert (bvult x42 (_ bv11 32)))
(assert (bvult x43 (_ bv11 32)))
(assert (bvult x44 (_ bv11 32)))
(assert (bvult x45 (_ bv11 32)))
(assert (bvult x46 (_ bv11 32)))
(assert (bvult x47 (_ bv11 32)))
(assert (bvult x48 (_ bv11 32)))
(assert (bvult x49 (_ bv11 32)))
(assert (bvult x50 (_ bv11 32)))
(assert (bvult x51 (_ bv11 32)))
(assert (bvult x52 (_ bv11 32)))
(assert (bvult x53 (_ bv11 32)))
(assert (bvult x54 (_ bv11 32)))
(assert (bvult x55 (_ bv11 32)))
(assert (bvult x56 (_ bv11 32)))
(assert (bvult x57 (_ bv11 32)))
(assert (bvult x58 (_ bv11 32)))
(assert (bvult x59 (_ bv11 32)))
(assert (bvult x60 (_ bv11 32)))
(assert (bvult x61 (_ bv11 32)))
(assert (bvult x62 (_ bv11 32)))
(assert (bvult x63 (_ bv11 32)))
(assert (bvult x64 (_ bv11 32)))
(assert (bvult x65 (_ bv11 32)))
(assert (bvult x66 (_ bv11 32)))
(assert (bvult x67 (_ bv11 32)))
(assert (bvult x68 (_ bv11 32)))
(assert (bvult x69 (_ bv11 32)))
(assert (bvult x70 (_ bv11 32)))
(assert (bvult x71 (_ bv11 32)))
(assert (bvult x72 (_ bv11 32)))
(assert (bvult x73 (_ bv11 32)))
(assert (bvult x74 (_ bv11 32)))
(assert (not (= x1 x44)))
(assert (not (= x1 x4)))
(assert (not (= x1 x69)))
(assert (not (= x1 x59)))
(assert (not (= x1 x13)))
(assert (not (= x1 x29)))
(assert (not (= x1 x40)))
(assert (not (= x1 x11)))
(assert (not (= x1 x50)))
(assert (not (= x1 x5)))
(assert (not (= x1 x25)))
(assert (not (= x1 x10)))
(assert (not (= x1 x63)))
(assert (not (= x1 x22)))
(assert (not (= x1 x9)))
(assert (not (= x1 x55)))
(assert (not (= x1 x72)))
(assert (not (= x1 x49)))
(assert (not (= x2 x46)))
(assert (not (= x2 x55)))
(assert (not (= x2 x62)))
(assert (not (= x2 x4)))
(assert (not (= x2 x74)))
(assert (not (= x2 x43)))
(assert (not (= x2 x51)))
(assert (not (= x2 x57)))
(assert (not (= x2 x41)))
(assert (not (= x3 x53)))
(assert (not (= x3 x52)))
(assert (not (= x3 x55)))
(assert (not (= x3 x9)))
(assert (not (= x4 x69)))
(assert (not (= x1 x4)))
(assert (not (= x4 x9)))
(assert (not (= x4 x22)))
(assert (not (= x4 x49)))
(assert (not (= x4 x63)))
(assert (not (= x4 x68)))
(assert (not (= x4 x60)))
(assert (not (= x4 x19)))
(assert (not (= x4 x56)))
(assert (not (= x4 x27)))
(assert (not (= x4 x46)))
(assert (not (= x4 x55)))
(assert (not (= x2 x4)))
(assert (not (= x4 x73)))
(assert (not (= x4 x43)))
(assert (not (= x4 x62)))
(assert (not (= x4 x47)))
(assert (not (= x4 x67)))
(assert (not (= x4 x12)))
(assert (not (= x4 x57)))
(assert (not (= x4 x32)))
(assert (not (= x4 x71)))
(assert (not (= x4 x45)))
(assert (not (= x4 x41)))
(assert (not (= x5 x59)))
(assert (not (= x5 x13)))
(assert (not (= x5 x29)))
(assert (not (= x5 x40)))
(assert (not (= x5 x11)))
(assert (not (= x5 x50)))
(assert (not (= x5 x25)))
(assert (not (= x5 x49)))
(assert (not (= x1 x5)))
(assert (not (= x5 x55)))
(assert (not (= x6 x64)))
(assert (not (= x6 x23)))
(assert (not (= x6 x21)))
(assert (not (= x6 x17)))
(assert (not (= x6 x34)))
(assert (not (= x6 x39)))
(assert (not (= x6 x20)))
(assert (not (= x6 x55)))
(assert (not (= x7 x70)))
(assert (not (= x8 x14)))
(assert (not (= x8 x44)))
(assert (not (= x8 x9)))
(assert (not (= x8 x52)))
(assert (not (= x8 x38)))
(assert (not (= x8 x31)))
(assert (not (= x8 x18)))
(assert (not (= x9 x69)))
(assert (not (= x4 x9)))
(assert (not (= x9 x72)))
(assert (not (= x9 x10)))
(assert (not (= x9 x66)))
(assert (not (= x1 x9)))
(assert (not (= x9 x49)))
(assert (not (= x8 x9)))
(assert (not (= x9 x14)))
(assert (not (= x9 x44)))
(assert (not (= x9 x38)))
(assert (not (= x9 x31)))
(assert (not (= x9 x18)))
(assert (not (= x3 x9)))
(assert (not (= x9 x53)))
(assert (not (= x9 x52)))
(assert (not (= x9 x22)))
(assert (not (= x9 x55)))
(assert (not (= x10 x72)))
(assert (not (= x1 x10)))
(assert (not (= x10 x49)))
(assert (not (= x10 x55)))
(assert (not (= x9 x10)))
(assert (not (= x11 x59)))
(assert (not (= x11 x13)))
(assert (not (= x11 x29)))
(assert (not (= x11 x40)))
(assert (not (= x11 x50)))
(assert (not (= x5 x11)))
(assert (not (= x11 x25)))
(assert (not (= x11 x49)))
(assert (not (= x1 x11)))
(assert (not (= x11 x55)))
(assert (not (= x12 x55)))
(assert (not (= x12 x73)))
(assert (not (= x12 x43)))
(assert (not (= x12 x62)))
(assert (not (= x4 x12)))
(assert (not (= x12 x47)))
(assert (not (= x12 x67)))
(assert (not (= x12 x57)))
(assert (not (= x12 x41)))
(assert (not (= x13 x59)))
(assert (not (= x13 x29)))
(assert (not (= x13 x40)))
(assert (not (= x11 x13)))
(assert (not (= x13 x50)))
(assert (not (= x5 x13)))
(assert (not (= x13 x25)))
(assert (not (= x13 x49)))
(assert (not (= x1 x13)))
(assert (not (= x13 x55)))
(assert (not (= x8 x14)))
(assert (not (= x14 x44)))
(assert (not (= x9 x14)))
(assert (not (= x14 x52)))
(assert (not (= x14 x38)))
(assert (not (= x14 x31)))
(assert (not (= x14 x18)))
(assert (not (= x15 x22)))
(assert (not (= x15 x55)))
(assert (not (= x16 x65)))
(assert (not (= x16 x55)))
(assert (not (= x17 x28)))
(assert (not (= x17 x30)))
(assert (not (= x17 x64)))
(assert (not (= x17 x23)))
(assert (not (= x17 x21)))
(assert (not (= x6 x17)))
(assert (not (= x17 x34)))
(assert (not (= x17 x39)))
(assert (not (= x17 x20)))
(assert (not (= x17 x55)))
(assert (not (= x18 x22)))
(assert (not (= x8 x18)))
(assert (not (= x14 x18)))
(assert (not (= x18 x44)))
(assert (not (= x9 x18)))
(assert (not (= x18 x52)))
(assert (not (= x18 x38)))
(assert (not (= x18 x24)))
(assert (not (= x18 x31)))
(assert (not (= x18 x55)))
(assert (not (= x19 x68)))
(assert (not (= x19 x55)))
(assert (not (= x19 x60)))
(assert (not (= x19 x73)))
(assert (not (= x4 x19)))
(assert (not (= x19 x56)))
(assert (not (= x19 x27)))
(assert (not (= x19 x57)))
(assert (not (= x19 x41)))
(assert (not (= x20 x64)))
(assert (not (= x20 x23)))
(assert (not (= x20 x21)))
(assert (not (= x17 x20)))
(assert (not (= x6 x20)))
(assert (not (= x20 x34)))
(assert (not (= x20 x39)))
(assert (not (= x20 x55)))
(assert (not (= x21 x64)))
(assert (not (= x21 x23)))
(assert (not (= x17 x21)))
(assert (not (= x6 x21)))
(assert (not (= x21 x34)))
(assert (not (= x21 x39)))
(assert (not (= x20 x21)))
(assert (not (= x21 x55)))
(assert (not (= x18 x22)))
(assert (not (= x22 x44)))
(assert (not (= x22 x69)))
(assert (not (= x22 x49)))
(assert (not (= x4 x22)))
(assert (not (= x22 x66)))
(assert (not (= x22 x63)))
(assert (not (= x1 x22)))
(assert (not (= x22 x61)))
(assert (not (= x22 x26)))
(assert (not (= x22 x57)))
(assert (not (= x22 x41)))
(assert (not (= x15 x22)))
(assert (not (= x22 x42)))
(assert (not (= x22 x55)))
(assert (not (= x9 x22)))
(assert (not (= x23 x30)))
(assert (not (= x23 x64)))
(assert (not (= x21 x23)))
(assert (not (= x17 x23)))
(assert (not (= x6 x23)))
(assert (not (= x23 x34)))
(assert (not (= x23 x39)))
(assert (not (= x20 x23)))
(assert (not (= x23 x55)))
(assert (not (= x18 x24)))
(assert (not (= x24 x31)))
(assert (not (= x24 x42)))
(assert (not (= x24 x55)))
(assert (not (= x25 x59)))
(assert (not (= x13 x25)))
(assert (not (= x25 x29)))
(assert (not (= x25 x40)))
(assert (not (= x11 x25)))
(assert (not (= x25 x50)))
(assert (not (= x5 x25)))
(assert (not (= x25 x49)))
(assert (not (= x1 x25)))
(assert (not (= x25 x55)))
(assert (not (= x22 x26)))
(assert (not (= x27 x68)))
(assert (not (= x27 x55)))
(assert (not (= x27 x60)))
(assert (not (= x19 x27)))
(assert (not (= x27 x73)))
(assert (not (= x27 x57)))
(assert (not (= x27 x41)))
(assert (not (= x4 x27)))
(assert (not (= x27 x56)))
(assert (not (= x27 x62)))
(assert (not (= x17 x28)))
(assert (not (= x29 x59)))
(assert (not (= x13 x29)))
(assert (not (= x29 x40)))
(assert (not (= x11 x29)))
(assert (not (= x29 x50)))
(assert (not (= x5 x29)))
(assert (not (= x25 x29)))
(assert (not (= x29 x49)))
(assert (not (= x1 x29)))
(assert (not (= x29 x55)))
(assert (not (= x23 x30)))
(assert (not (= x30 x55)))
(assert (not (= x17 x30)))
(assert (not (= x8 x31)))
(assert (not (= x14 x31)))
(assert (not (= x31 x44)))
(assert (not (= x9 x31)))
(assert (not (= x31 x52)))
(assert (not (= x31 x38)))
(assert (not (= x24 x31)))
(assert (not (= x18 x31)))
(assert (not (= x31 x55)))
(assert (not (= x4 x32)))
(assert (not (= x32 x71)))
(assert (not (= x33 x49)))
(assert (not (= x34 x64)))
(assert (not (= x23 x34)))
(assert (not (= x21 x34)))
(assert (not (= x17 x34)))
(assert (not (= x6 x34)))
(assert (not (= x34 x39)))
(assert (not (= x20 x34)))
(assert (not (= x34 x55)))
(assert (not (= x35 x48)))
(assert (not (= x35 x58)))
(assert (not (= x36 x60)))
(assert (not (= x36 x55)))
(assert (not (= x36 x57)))
(assert (not (= x36 x41)))
(assert (not (= x37 x72)))
(assert (not (= x37 x49)))
(assert (not (= x8 x38)))
(assert (not (= x14 x38)))
(assert (not (= x38 x44)))
(assert (not (= x9 x38)))
(assert (not (= x38 x52)))
(assert (not (= x31 x38)))
(assert (not (= x18 x38)))
(assert (not (= x39 x64)))
(assert (not (= x23 x39)))
(assert (not (= x21 x39)))
(assert (not (= x17 x39)))
(assert (not (= x6 x39)))
(assert (not (= x34 x39)))
(assert (not (= x20 x39)))
(assert (not (= x39 x55)))
(assert (not (= x40 x59)))
(assert (not (= x13 x40)))
(assert (not (= x29 x40)))
(assert (not (= x11 x40)))
(assert (not (= x40 x50)))
(assert (not (= x5 x40)))
(assert (not (= x25 x40)))
(assert (not (= x40 x49)))
(assert (not (= x1 x40)))
(assert (not (= x40 x55)))
(assert (not (= x41 x68)))
(assert (not (= x41 x60)))
(assert (not (= x19 x41)))
(assert (not (= x41 x73)))
(assert (not (= x41 x56)))
(assert (not (= x27 x41)))
(assert (not (= x41 x46)))
(assert (not (= x2 x41)))
(assert (not (= x41 x74)))
(assert (not (= x41 x43)))
(assert (not (= x41 x51)))
(assert (not (= x41 x62)))
(assert (not (= x41 x47)))
(assert (not (= x41 x67)))
(assert (not (= x12 x41)))
(assert (not (= x36 x41)))
(assert (not (= x4 x41)))
(assert (not (= x41 x57)))
(assert (not (= x22 x41)))
(assert (not (= x41 x55)))
(assert (not (= x22 x42)))
(assert (not (= x42 x55)))
(assert (not (= x24 x42)))
(assert (not (= x43 x47)))
(assert (not (= x43 x67)))
(assert (not (= x12 x43)))
(assert (not (= x43 x73)))
(assert (not (= x4 x43)))
(assert (not (= x2 x43)))
(assert (not (= x43 x74)))
(assert (not (= x43 x51)))
(assert (not (= x43 x57)))
(assert (not (= x41 x43)))
(assert (not (= x22 x44)))
(assert (not (= x1 x44)))
(assert (not (= x44 x55)))
(assert (not (= x44 x49)))
(assert (not (= x8 x44)))
(assert (not (= x14 x44)))
(assert (not (= x9 x44)))
(assert (not (= x44 x52)))
(assert (not (= x38 x44)))
(assert (not (= x31 x44)))
(assert (not (= x18 x44)))
(assert (not (= x4 x45)))
(assert (not (= x45 x71)))
(assert (not (= x46 x55)))
(assert (not (= x46 x62)))
(assert (not (= x4 x46)))
(assert (not (= x46 x57)))
(assert (not (= x41 x46)))
(assert (not (= x2 x46)))
(assert (not (= x47 x55)))
(assert (not (= x47 x73)))
(assert (not (= x43 x47)))
(assert (not (= x47 x62)))
(assert (not (= x4 x47)))
(assert (not (= x47 x67)))
(assert (not (= x12 x47)))
(assert (not (= x47 x57)))
(assert (not (= x41 x47)))
(assert (not (= x35 x48)))
(assert (not (= x48 x58)))
(assert (not (= x44 x49)))
(assert (not (= x22 x49)))
(assert (not (= x49 x69)))
(assert (not (= x49 x59)))
(assert (not (= x13 x49)))
(assert (not (= x29 x49)))
(assert (not (= x40 x49)))
(assert (not (= x11 x49)))
(assert (not (= x49 x50)))
(assert (not (= x5 x49)))
(assert (not (= x25 x49)))
(assert (not (= x4 x49)))
(assert (not (= x33 x49)))
(assert (not (= x10 x49)))
(assert (not (= x9 x49)))
(assert (not (= x37 x49)))
(assert (not (= x1 x49)))
(assert (not (= x49 x55)))
(assert (not (= x49 x72)))
(assert (not (= x50 x59)))
(assert (not (= x13 x50)))
(assert (not (= x29 x50)))
(assert (not (= x40 x50)))
(assert (not (= x11 x50)))
(assert (not (= x5 x50)))
(assert (not (= x25 x50)))
(assert (not (= x49 x50)))
(assert (not (= x1 x50)))
(assert (not (= x50 x55)))
(assert (not (= x2 x51)))
(assert (not (= x51 x74)))
(assert (not (= x43 x51)))
(assert (not (= x51 x57)))
(assert (not (= x41 x51)))
(assert (not (= x8 x52)))
(assert (not (= x14 x52)))
(assert (not (= x44 x52)))
(assert (not (= x38 x52)))
(assert (not (= x31 x52)))
(assert (not (= x18 x52)))
(assert (not (= x3 x52)))
(assert (not (= x52 x53)))
(assert (not (= x52 x55)))
(assert (not (= x9 x52)))
(assert (not (= x3 x53)))
(assert (not (= x52 x53)))
(assert (not (= x53 x55)))
(assert (not (= x9 x53)))
(assert (not (= x54 x55)))
(assert (not (= x44 x55)))
(assert (not (= x55 x59)))
(assert (not (= x13 x55)))
(assert (not (= x29 x55)))
(assert (not (= x40 x55)))
(assert (not (= x11 x55)))
(assert (not (= x50 x55)))
(assert (not (= x5 x55)))
(assert (not (= x25 x55)))
(assert (not (= x55 x69)))
(assert (not (= x10 x55)))
(assert (not (= x55 x66)))
(assert (not (= x1 x55)))
(assert (not (= x55 x72)))
(assert (not (= x49 x55)))
(assert (not (= x55 x68)))
(assert (not (= x55 x60)))
(assert (not (= x19 x55)))
(assert (not (= x55 x73)))
(assert (not (= x55 x56)))
(assert (not (= x27 x55)))
(assert (not (= x46 x55)))
(assert (not (= x4 x55)))
(assert (not (= x2 x55)))
(assert (not (= x55 x62)))
(assert (not (= x47 x55)))
(assert (not (= x55 x67)))
(assert (not (= x12 x55)))
(assert (not (= x36 x55)))
(assert (not (= x55 x57)))
(assert (not (= x41 x55)))
(assert (not (= x15 x55)))
(assert (not (= x30 x55)))
(assert (not (= x55 x64)))
(assert (not (= x23 x55)))
(assert (not (= x21 x55)))
(assert (not (= x17 x55)))
(assert (not (= x6 x55)))
(assert (not (= x34 x55)))
(assert (not (= x39 x55)))
(assert (not (= x20 x55)))
(assert (not (= x55 x65)))
(assert (not (= x16 x55)))
(assert (not (= x54 x55)))
(assert (not (= x18 x55)))
(assert (not (= x31 x55)))
(assert (not (= x3 x55)))
(assert (not (= x53 x55)))
(assert (not (= x52 x55)))
(assert (not (= x22 x55)))
(assert (not (= x42 x55)))
(assert (not (= x24 x55)))
(assert (not (= x9 x55)))
(assert (not (= x56 x68)))
(assert (not (= x55 x56)))
(assert (not (= x56 x60)))
(assert (not (= x19 x56)))
(assert (not (= x56 x73)))
(assert (not (= x56 x57)))
(assert (not (= x41 x56)))
(assert (not (= x4 x56)))
(assert (not (= x27 x56)))
(assert (not (= x57 x68)))
(assert (not (= x57 x60)))
(assert (not (= x19 x57)))
(assert (not (= x57 x73)))
(assert (not (= x56 x57)))
(assert (not (= x27 x57)))
(assert (not (= x46 x57)))
(assert (not (= x2 x57)))
(assert (not (= x57 x74)))
(assert (not (= x43 x57)))
(assert (not (= x51 x57)))
(assert (not (= x57 x62)))
(assert (not (= x47 x57)))
(assert (not (= x57 x67)))
(assert (not (= x12 x57)))
(assert (not (= x36 x57)))
(assert (not (= x4 x57)))
(assert (not (= x41 x57)))
(assert (not (= x22 x57)))
(assert (not (= x55 x57)))
(assert (not (= x35 x58)))
(assert (not (= x48 x58)))
(assert (not (= x13 x59)))
(assert (not (= x29 x59)))
(assert (not (= x40 x59)))
(assert (not (= x11 x59)))
(assert (not (= x50 x59)))
(assert (not (= x5 x59)))
(assert (not (= x25 x59)))
(assert (not (= x49 x59)))
(assert (not (= x1 x59)))
(assert (not (= x55 x59)))
(assert (not (= x36 x60)))
(assert (not (= x60 x68)))
(assert (not (= x55 x60)))
(assert (not (= x19 x60)))
(assert (not (= x60 x73)))
(assert (not (= x4 x60)))
(assert (not (= x56 x60)))
(assert (not (= x27 x60)))
(assert (not (= x57 x60)))
(assert (not (= x41 x60)))
(assert (not (= x22 x61)))
(assert (not (= x46 x62)))
(assert (not (= x2 x62)))
(assert (not (= x55 x62)))
(assert (not (= x4 x62)))
(assert (not (= x47 x62)))
(assert (not (= x62 x67)))
(assert (not (= x12 x62)))
(assert (not (= x57 x62)))
(assert (not (= x41 x62)))
(assert (not (= x27 x62)))
(assert (not (= x4 x63)))
(assert (not (= x1 x63)))
(assert (not (= x22 x63)))
(assert (not (= x23 x64)))
(assert (not (= x21 x64)))
(assert (not (= x17 x64)))
(assert (not (= x6 x64)))
(assert (not (= x34 x64)))
(assert (not (= x39 x64)))
(assert (not (= x20 x64)))
(assert (not (= x55 x64)))
(assert (not (= x16 x65)))
(assert (not (= x55 x65)))
(assert (not (= x22 x66)))
(assert (not (= x55 x66)))
(assert (not (= x9 x66)))
(assert (not (= x55 x67)))
(assert (not (= x67 x73)))
(assert (not (= x43 x67)))
(assert (not (= x62 x67)))
(assert (not (= x4 x67)))
(assert (not (= x47 x67)))
(assert (not (= x12 x67)))
(assert (not (= x57 x67)))
(assert (not (= x41 x67)))
(assert (not (= x55 x68)))
(assert (not (= x60 x68)))
(assert (not (= x19 x68)))
(assert (not (= x68 x73)))
(assert (not (= x4 x68)))
(assert (not (= x56 x68)))
(assert (not (= x27 x68)))
(assert (not (= x57 x68)))
(assert (not (= x41 x68)))
(assert (not (= x4 x69)))
(assert (not (= x22 x69)))
(assert (not (= x9 x69)))
(assert (not (= x1 x69)))
(assert (not (= x49 x69)))
(assert (not (= x55 x69)))
(assert (not (= x7 x70)))
(assert (not (= x32 x71)))
(assert (not (= x4 x71)))
(assert (not (= x45 x71)))
(assert (not (= x10 x72)))
(assert (not (= x9 x72)))
(assert (not (= x37 x72)))
(assert (not (= x1 x72)))
(assert (not (= x55 x72)))
(assert (not (= x49 x72)))
(assert (not (= x68 x73)))
(assert (not (= x55 x73)))
(assert (not (= x60 x73)))
(assert (not (= x19 x73)))
(assert (not (= x56 x73)))
(assert (not (= x27 x73)))
(assert (not (= x57 x73)))
(assert (not (= x41 x73)))
(assert (not (= x47 x73)))
(assert (not (= x67 x73)))
(assert (not (= x12 x73)))
(assert (not (= x43 x73)))
(assert (not (= x4 x73)))
(assert (not (= x2 x74)))
(assert (not (= x43 x74)))
(assert (not (= x51 x74)))
(assert (not (= x57 x74)))
(assert (not (= x41 x74)))
(check-sat)
(exit)
